p edge 1574 1549
e 1 2
e 1 3
e 1 4
e 1 5
e 1 6
e 1 7
e 1 8
e 1 9
e 1 10
e 1 11
e 1 12
e 13 14
e 13 15
e 13 16
e 13 17
e 13 18
e 13 19
e 13 20
e 13 21
e 13 22
e 13 23
e 13 24
e 13 25
e 13 26
e 13 27
e 13 28
e 13 29
e 13 30
e 13 31
e 13 32
e 13 33
e 13 34
e 13 35
e 13 36
e 13 37
e 13 38
e 39 40
e 39 41
e 39 42
e 39 43
e 39 44
e 39 45
e 39 46
e 39 47
e 39 48
e 39 49
e 39 50
e 39 51
e 39 52
e 39 53
e 39 54
e 39 55
e 39 56
e 39 57
e 39 58
e 39 59
e 39 60
e 39 61
e 39 62
e 39 63
e 39 64
e 39 65
e 39 66
e 39 67
e 39 68
e 39 69
e 39 70
e 39 71
e 39 72
e 39 73
e 39 74
e 39 75
e 39 76
e 39 77
e 39 78
e 39 79
e 39 80
e 39 81
e 39 82
e 39 83
e 39 84
e 39 85
e 39 86
e 39 87
e 39 88
e 89 90
e 89 91
e 89 92
e 89 93
e 89 94
e 89 95
e 89 96
e 89 97
e 89 98
e 89 99
e 89 100
e 89 101
e 89 102
e 89 103
e 89 104
e 89 105
e 89 106
e 89 107
e 89 108
e 89 109
e 89 110
e 89 111
e 89 112
e 89 113
e 89 114
e 89 115
e 89 116
e 89 117
e 89 118
e 89 119
e 89 120
e 89 121
e 89 122
e 89 123
e 89 124
e 89 125
e 89 126
e 89 127
e 89 128
e 89 129
e 89 130
e 89 131
e 89 132
e 133 134
e 133 135
e 133 136
e 133 137
e 133 138
e 133 139
e 133 140
e 133 141
e 133 142
e 133 143
e 133 144
e 133 145
e 133 146
e 133 147
e 133 148
e 133 149
e 133 150
e 133 151
e 133 152
e 133 153
e 133 154
e 133 155
e 133 156
e 133 157
e 158 159
e 158 160
e 158 161
e 158 162
e 158 163
e 158 164
e 158 165
e 158 166
e 158 167
e 158 168
e 158 169
e 158 170
e 158 171
e 158 172
e 158 173
e 158 174
e 158 175
e 158 176
e 158 177
e 158 178
e 158 179
e 158 180
e 158 181
e 158 182
e 158 183
e 158 184
e 158 185
e 158 186
e 158 187
e 158 188
e 158 189
e 158 190
e 158 191
e 158 192
e 158 193
e 158 194
e 158 195
e 158 196
e 158 197
e 158 198
e 158 199
e 158 200
e 158 201
e 158 202
e 158 203
e 158 204
e 158 205
e 158 206
e 158 207
e 158 208
e 158 209
e 158 210
e 158 211
e 158 212
e 158 213
e 158 214
e 158 215
e 158 216
e 158 217
e 158 218
e 158 219
e 158 220
e 158 221
e 158 222
e 223 224
e 223 225
e 223 226
e 223 227
e 223 228
e 223 229
e 223 230
e 223 231
e 223 232
e 223 233
e 223 234
e 223 235
e 223 236
e 223 237
e 223 238
e 223 239
e 223 240
e 223 241
e 223 242
e 223 243
e 223 244
e 223 245
e 223 246
e 223 247
e 223 248
e 223 249
e 223 250
e 223 251
e 223 252
e 223 253
e 223 254
e 223 255
e 223 256
e 223 257
e 223 258
e 223 259
e 223 260
e 223 261
e 223 262
e 223 263
e 223 264
e 223 265
e 223 266
e 223 267
e 223 268
e 223 269
e 223 270
e 223 271
e 223 272
e 223 273
e 223 274
e 275 276
e 275 277
e 275 278
e 275 279
e 275 280
e 275 281
e 275 282
e 275 283
e 275 284
e 275 285
e 275 286
e 275 287
e 275 288
e 275 289
e 275 290
e 275 291
e 275 292
e 275 293
e 275 294
e 275 295
e 275 296
e 275 297
e 275 298
e 275 299
e 275 300
e 275 301
e 275 302
e 275 303
e 275 304
e 275 305
e 275 306
e 275 307
e 308 309
e 308 310
e 308 311
e 308 312
e 308 313
e 308 314
e 308 315
e 308 316
e 308 317
e 308 318
e 308 319
e 308 320
e 308 321
e 308 322
e 308 323
e 308 324
e 308 325
e 308 326
e 308 327
e 308 328
e 308 329
e 308 330
e 308 331
e 308 332
e 308 333
e 308 334
e 308 335
e 308 336
e 308 337
e 308 338
e 308 339
e 308 340
e 308 341
e 308 342
e 308 343
e 308 344
e 308 345
e 308 346
e 308 347
e 308 348
e 308 349
e 308 350
e 308 351
e 308 352
e 308 353
e 308 354
e 355 356
e 355 357
e 355 358
e 355 359
e 355 360
e 355 361
e 355 362
e 355 363
e 355 364
e 355 365
e 355 366
e 355 367
e 355 368
e 355 369
e 355 370
e 355 371
e 355 372
e 355 373
e 355 374
e 355 375
e 355 376
e 355 377
e 355 378
e 355 379
e 355 380
e 355 381
e 355 382
e 355 383
e 355 384
e 355 385
e 355 386
e 355 387
e 355 388
e 355 389
e 355 390
e 355 391
e 355 392
e 355 393
e 355 394
e 355 395
e 355 396
e 355 397
e 355 398
e 355 399
e 355 400
e 355 401
e 355 402
e 355 403
e 355 404
e 405 406
e 405 407
e 405 408
e 405 409
e 405 410
e 405 411
e 405 412
e 405 413
e 405 414
e 405 415
e 405 416
e 405 417
e 405 418
e 405 419
e 405 420
e 405 421
e 405 422
e 405 423
e 405 424
e 405 425
e 405 426
e 405 427
e 405 428
e 405 429
e 405 430
e 405 431
e 405 432
e 405 433
e 405 434
e 405 435
e 405 436
e 405 437
e 405 438
e 405 439
e 405 440
e 405 441
e 405 442
e 405 443
e 405 444
e 405 445
e 405 446
e 405 447
e 405 448
e 449 450
e 449 451
e 449 452
e 449 453
e 449 454
e 449 455
e 449 456
e 449 457
e 449 458
e 449 459
e 449 460
e 449 461
e 449 462
e 449 463
e 449 464
e 449 465
e 449 466
e 449 467
e 449 468
e 449 469
e 449 470
e 449 471
e 449 472
e 449 473
e 449 474
e 449 475
e 449 476
e 449 477
e 449 478
e 449 479
e 449 480
e 449 481
e 449 482
e 449 483
e 449 484
e 449 485
e 449 486
e 449 487
e 449 488
e 449 489
e 449 490
e 449 491
e 449 492
e 449 493
e 449 494
e 449 495
e 449 496
e 449 497
e 449 498
e 449 499
e 449 500
e 449 501
e 449 502
e 449 503
e 449 504
e 449 505
e 449 506
e 449 507
e 449 508
e 449 509
e 449 510
e 449 511
e 449 512
e 449 513
e 449 514
e 449 515
e 449 516
e 449 517
e 449 518
e 449 519
e 520 521
e 520 522
e 520 523
e 520 524
e 520 525
e 520 526
e 520 527
e 520 528
e 520 529
e 520 530
e 520 531
e 520 532
e 520 533
e 520 534
e 520 535
e 520 536
e 520 537
e 520 538
e 520 539
e 520 540
e 520 541
e 520 542
e 520 543
e 520 544
e 520 545
e 520 546
e 520 547
e 520 548
e 520 549
e 520 550
e 520 551
e 520 552
e 520 553
e 520 554
e 520 555
e 520 556
e 520 557
e 520 558
e 520 559
e 520 560
e 520 561
e 520 562
e 520 563
e 520 564
e 520 565
e 520 566
e 520 567
e 520 568
e 520 569
e 570 571
e 570 572
e 570 573
e 570 574
e 570 575
e 570 576
e 570 577
e 570 578
e 570 579
e 570 580
e 570 581
e 570 582
e 570 583
e 570 584
e 570 585
e 570 586
e 570 587
e 570 588
e 570 589
e 570 590
e 570 591
e 570 592
e 570 593
e 570 594
e 570 595
e 570 596
e 570 597
e 570 598
e 570 599
e 570 600
e 570 601
e 570 602
e 570 603
e 570 604
e 570 605
e 570 606
e 570 607
e 570 608
e 570 609
e 570 610
e 570 611
e 570 612
e 570 613
e 570 614
e 570 615
e 570 616
e 570 617
e 570 618
e 570 619
e 570 620
e 570 621
e 570 622
e 570 623
e 570 624
e 570 625
e 570 626
e 570 627
e 570 628
e 570 629
e 570 630
e 570 631
e 570 632
e 570 633
e 570 634
e 570 635
e 570 636
e 570 637
e 570 638
e 570 639
e 570 640
e 570 641
e 570 642
e 570 643
e 570 644
e 570 645
e 570 646
e 570 647
e 570 648
e 570 649
e 570 650
e 570 651
e 570 652
e 570 653
e 570 654
e 570 655
e 570 656
e 570 657
e 570 658
e 570 659
e 570 660
e 661 662
e 661 663
e 661 664
e 661 665
e 661 666
e 661 667
e 661 668
e 661 669
e 661 670
e 661 671
e 661 672
e 661 673
e 661 674
e 661 675
e 661 676
e 661 677
e 661 678
e 661 679
e 661 680
e 661 681
e 661 682
e 661 683
e 661 684
e 661 685
e 661 686
e 661 687
e 661 688
e 661 689
e 661 690
e 661 691
e 661 692
e 661 693
e 661 694
e 661 695
e 661 696
e 661 697
e 661 698
e 661 699
e 661 700
e 661 701
e 661 702
e 661 703
e 661 704
e 661 705
e 661 706
e 661 707
e 661 708
e 661 709
e 661 710
e 661 711
e 661 712
e 661 713
e 661 714
e 661 715
e 661 716
e 661 717
e 661 718
e 661 719
e 661 720
e 661 721
e 661 722
e 661 723
e 661 724
e 661 725
e 661 726
e 661 727
e 661 728
e 661 729
e 661 730
e 661 731
e 661 732
e 661 733
e 661 734
e 661 735
e 661 736
e 661 737
e 661 738
e 661 739
e 661 740
e 661 741
e 661 742
e 661 743
e 661 744
e 661 745
e 661 746
e 661 747
e 661 748
e 661 749
e 661 750
e 751 752
e 751 753
e 751 754
e 751 755
e 751 756
e 751 757
e 751 758
e 751 759
e 751 760
e 751 761
e 751 762
e 751 763
e 751 764
e 751 765
e 751 766
e 751 767
e 751 768
e 751 769
e 751 770
e 751 771
e 751 772
e 751 773
e 751 774
e 751 775
e 751 776
e 751 777
e 751 778
e 751 779
e 751 780
e 751 781
e 751 782
e 751 783
e 751 784
e 751 785
e 751 786
e 751 787
e 751 788
e 751 789
e 751 790
e 751 791
e 751 792
e 751 793
e 751 794
e 751 795
e 751 796
e 751 797
e 751 798
e 751 799
e 751 800
e 751 801
e 751 802
e 751 803
e 751 804
e 751 805
e 751 806
e 751 807
e 751 808
e 751 809
e 751 810
e 751 811
e 751 812
e 751 813
e 751 814
e 751 815
e 751 816
e 751 817
e 751 818
e 751 819
e 751 820
e 751 821
e 751 822
e 751 823
e 751 824
e 751 825
e 751 826
e 751 827
e 751 828
e 751 829
e 751 830
e 751 831
e 751 832
e 751 833
e 751 834
e 751 835
e 751 836
e 751 837
e 751 838
e 751 839
e 751 840
e 751 841
e 751 842
e 751 843
e 751 844
e 751 845
e 751 846
e 751 847
e 848 849
e 848 850
e 848 851
e 848 852
e 848 853
e 848 854
e 848 855
e 848 856
e 848 857
e 848 858
e 848 859
e 848 860
e 848 861
e 848 862
e 848 863
e 848 864
e 848 865
e 848 866
e 848 867
e 848 868
e 848 869
e 848 870
e 848 871
e 848 872
e 848 873
e 848 874
e 848 875
e 848 876
e 848 877
e 848 878
e 848 879
e 848 880
e 848 881
e 848 882
e 848 883
e 848 884
e 848 885
e 848 886
e 848 887
e 848 888
e 848 889
e 848 890
e 848 891
e 848 892
e 848 893
e 848 894
e 848 895
e 848 896
e 848 897
e 848 898
e 848 899
e 848 900
e 848 901
e 848 902
e 848 903
e 848 904
e 848 905
e 848 906
e 848 907
e 848 908
e 909 910
e 909 911
e 909 912
e 909 913
e 909 914
e 909 915
e 909 916
e 909 917
e 909 918
e 909 919
e 909 920
e 909 921
e 909 922
e 909 923
e 909 924
e 909 925
e 909 926
e 909 927
e 909 928
e 909 929
e 909 930
e 909 931
e 909 932
e 909 933
e 909 934
e 909 935
e 909 936
e 909 937
e 909 938
e 909 939
e 909 940
e 909 941
e 909 942
e 909 943
e 909 944
e 909 945
e 909 946
e 909 947
e 909 948
e 909 949
e 909 950
e 909 951
e 909 952
e 909 953
e 909 954
e 909 955
e 909 956
e 909 957
e 909 958
e 909 959
e 909 960
e 909 961
e 909 962
e 909 963
e 909 964
e 909 965
e 909 966
e 909 967
e 909 968
e 909 969
e 909 970
e 909 971
e 909 972
e 909 973
e 909 974
e 909 975
e 909 976
e 909 977
e 909 978
e 909 979
e 909 980
e 909 981
e 909 982
e 909 983
e 909 984
e 909 985
e 909 986
e 909 987
e 909 988
e 909 989
e 909 990
e 909 991
e 909 992
e 909 993
e 909 994
e 909 995
e 909 996
e 909 997
e 909 998
e 909 999
e 909 1000
e 909 1001
e 909 1002
e 1003 1004
e 1003 1005
e 1003 1006
e 1003 1007
e 1003 1008
e 1003 1009
e 1003 1010
e 1003 1011
e 1003 1012
e 1003 1013
e 1003 1014
e 1003 1015
e 1003 1016
e 1003 1017
e 1003 1018
e 1003 1019
e 1003 1020
e 1003 1021
e 1003 1022
e 1003 1023
e 1003 1024
e 1003 1025
e 1003 1026
e 1003 1027
e 1003 1028
e 1003 1029
e 1003 1030
e 1003 1031
e 1003 1032
e 1003 1033
e 1003 1034
e 1003 1035
e 1003 1036
e 1003 1037
e 1003 1038
e 1003 1039
e 1003 1040
e 1003 1041
e 1003 1042
e 1003 1043
e 1003 1044
e 1003 1045
e 1003 1046
e 1003 1047
e 1003 1048
e 1003 1049
e 1003 1050
e 1003 1051
e 1003 1052
e 1003 1053
e 1003 1054
e 1003 1055
e 1003 1056
e 1003 1057
e 1003 1058
e 1003 1059
e 1003 1060
e 1003 1061
e 1003 1062
e 1003 1063
e 1003 1064
e 1003 1065
e 1003 1066
e 1003 1067
e 1003 1068
e 1003 1069
e 1003 1070
e 1003 1071
e 1003 1072
e 1003 1073
e 1003 1074
e 1003 1075
e 1003 1076
e 1003 1077
e 1003 1078
e 1079 1080
e 1079 1081
e 1079 1082
e 1079 1083
e 1079 1084
e 1079 1085
e 1079 1086
e 1079 1087
e 1079 1088
e 1079 1089
e 1079 1090
e 1079 1091
e 1079 1092
e 1079 1093
e 1079 1094
e 1079 1095
e 1079 1096
e 1079 1097
e 1079 1098
e 1079 1099
e 1079 1100
e 1079 1101
e 1079 1102
e 1079 1103
e 1079 1104
e 1079 1105
e 1079 1106
e 1079 1107
e 1079 1108
e 1079 1109
e 1079 1110
e 1079 1111
e 1079 1112
e 1079 1113
e 1079 1114
e 1079 1115
e 1079 1116
e 1079 1117
e 1079 1118
e 1079 1119
e 1079 1120
e 1079 1121
e 1079 1122
e 1079 1123
e 1079 1124
e 1079 1125
e 1079 1126
e 1079 1127
e 1079 1128
e 1079 1129
e 1079 1130
e 1079 1131
e 1079 1132
e 1079 1133
e 1079 1134
e 1079 1135
e 1079 1136
e 1079 1137
e 1079 1138
e 1079 1139
e 1079 1140
e 1079 1141
e 1079 1142
e 1079 1143
e 1079 1144
e 1079 1145
e 1079 1146
e 1079 1147
e 1079 1148
e 1079 1149
e 1079 1150
e 1079 1151
e 1079 1152
e 1079 1153
e 1079 1154
e 1079 1155
e 1079 1156
e 1079 1157
e 1079 1158
e 1079 1159
e 1079 1160
e 1079 1161
e 1079 1162
e 1079 1163
e 1079 1164
e 1079 1165
e 1079 1166
e 1079 1167
e 1079 1168
e 1079 1169
e 1170 1171
e 1170 1172
e 1170 1173
e 1170 1174
e 1170 1175
e 1170 1176
e 1170 1177
e 1170 1178
e 1170 1179
e 1170 1180
e 1170 1181
e 1170 1182
e 1170 1183
e 1170 1184
e 1170 1185
e 1170 1186
e 1170 1187
e 1170 1188
e 1170 1189
e 1170 1190
e 1170 1191
e 1170 1192
e 1170 1193
e 1170 1194
e 1170 1195
e 1170 1196
e 1170 1197
e 1170 1198
e 1170 1199
e 1170 1200
e 1170 1201
e 1170 1202
e 1170 1203
e 1170 1204
e 1170 1205
e 1170 1206
e 1170 1207
e 1170 1208
e 1170 1209
e 1170 1210
e 1170 1211
e 1170 1212
e 1170 1213
e 1170 1214
e 1170 1215
e 1170 1216
e 1170 1217
e 1170 1218
e 1170 1219
e 1170 1220
e 1170 1221
e 1170 1222
e 1170 1223
e 1170 1224
e 1170 1225
e 1170 1226
e 1170 1227
e 1170 1228
e 1170 1229
e 1170 1230
e 1170 1231
e 1170 1232
e 1170 1233
e 1170 1234
e 1170 1235
e 1170 1236
e 1170 1237
e 1170 1238
e 1170 1239
e 1170 1240
e 1170 1241
e 1170 1242
e 1170 1243
e 1170 1244
e 1170 1245
e 1170 1246
e 1170 1247
e 1170 1248
e 1170 1249
e 1170 1250
e 1170 1251
e 1170 1252
e 1170 1253
e 1170 1254
e 1170 1255
e 1170 1256
e 1170 1257
e 1170 1258
e 1170 1259
e 1170 1260
e 1170 1261
e 1262 1263
e 1262 1264
e 1262 1265
e 1262 1266
e 1262 1267
e 1262 1268
e 1262 1269
e 1262 1270
e 1262 1271
e 1262 1272
e 1262 1273
e 1262 1274
e 1262 1275
e 1262 1276
e 1262 1277
e 1262 1278
e 1262 1279
e 1262 1280
e 1262 1281
e 1262 1282
e 1262 1283
e 1262 1284
e 1262 1285
e 1262 1286
e 1262 1287
e 1262 1288
e 1262 1289
e 1262 1290
e 1262 1291
e 1262 1292
e 1262 1293
e 1262 1294
e 1262 1295
e 1262 1296
e 1262 1297
e 1262 1298
e 1262 1299
e 1262 1300
e 1262 1301
e 1262 1302
e 1262 1303
e 1262 1304
e 1262 1305
e 1262 1306
e 1262 1307
e 1262 1308
e 1262 1309
e 1262 1310
e 1262 1311
e 1262 1312
e 1262 1313
e 1262 1314
e 1262 1315
e 1262 1316
e 1262 1317
e 1262 1318
e 1262 1319
e 1262 1320
e 1321 1322
e 1321 1323
e 1321 1324
e 1321 1325
e 1321 1326
e 1321 1327
e 1321 1328
e 1321 1329
e 1321 1330
e 1321 1331
e 1321 1332
e 1321 1333
e 1321 1334
e 1321 1335
e 1321 1336
e 1321 1337
e 1321 1338
e 1321 1339
e 1321 1340
e 1321 1341
e 1321 1342
e 1321 1343
e 1321 1344
e 1321 1345
e 1321 1346
e 1321 1347
e 1321 1348
e 1321 1349
e 1321 1350
e 1321 1351
e 1321 1352
e 1321 1353
e 1321 1354
e 1321 1355
e 1321 1356
e 1321 1357
e 1321 1358
e 1321 1359
e 1321 1360
e 1321 1361
e 1321 1362
e 1321 1363
e 1321 1364
e 1321 1365
e 1321 1366
e 1321 1367
e 1321 1368
e 1321 1369
e 1321 1370
e 1321 1371
e 1321 1372
e 1321 1373
e 1321 1374
e 1321 1375
e 1321 1376
e 1321 1377
e 1321 1378
e 1321 1379
e 1321 1380
e 1321 1381
e 1321 1382
e 1321 1383
e 1321 1384
e 1321 1385
e 1321 1386
e 1321 1387
e 1321 1388
e 1321 1389
e 1321 1390
e 1321 1391
e 1321 1392
e 1321 1393
e 1321 1394
e 1321 1395
e 1321 1396
e 1321 1397
e 1321 1398
e 1321 1399
e 1321 1400
e 1401 1402
e 1401 1403
e 1401 1404
e 1401 1405
e 1401 1406
e 1401 1407
e 1401 1408
e 1401 1409
e 1401 1410
e 1401 1411
e 1401 1412
e 1401 1413
e 1401 1414
e 1401 1415
e 1401 1416
e 1401 1417
e 1401 1418
e 1401 1419
e 1401 1420
e 1401 1421
e 1401 1422
e 1401 1423
e 1401 1424
e 1401 1425
e 1401 1426
e 1401 1427
e 1401 1428
e 1401 1429
e 1401 1430
e 1401 1431
e 1401 1432
e 1401 1433
e 1401 1434
e 1401 1435
e 1401 1436
e 1401 1437
e 1401 1438
e 1401 1439
e 1401 1440
e 1401 1441
e 1401 1442
e 1401 1443
e 1401 1444
e 1401 1445
e 1401 1446
e 1401 1447
e 1401 1448
e 1401 1449
e 1401 1450
e 1401 1451
e 1401 1452
e 1401 1453
e 1401 1454
e 1401 1455
e 1401 1456
e 1401 1457
e 1401 1458
e 1401 1459
e 1401 1460
e 1401 1461
e 1401 1462
e 1401 1463
e 1401 1464
e 1401 1465
e 1401 1466
e 1401 1467
e 1401 1468
e 1401 1469
e 1401 1470
e 1401 1471
e 1401 1472
e 1401 1473
e 1474 1475
e 1474 1476
e 1474 1477
e 1474 1478
e 1474 1479
e 1474 1480
e 1474 1481
e 1474 1482
e 1474 1483
e 1474 1484
e 1474 1485
e 1474 1486
e 1474 1487
e 1474 1488
e 1474 1489
e 1474 1490
e 1474 1491
e 1474 1492
e 1474 1493
e 1474 1494
e 1474 1495
e 1474 1496
e 1474 1497
e 1474 1498
e 1474 1499
e 1474 1500
e 1474 1501
e 1474 1502
e 1474 1503
e 1474 1504
e 1474 1505
e 1474 1506
e 1474 1507
e 1474 1508
e 1474 1509
e 1474 1510
e 1474 1511
e 1474 1512
e 1474 1513
e 1474 1514
e 1474 1515
e 1474 1516
e 1474 1517
e 1474 1518
e 1474 1519
e 1474 1520
e 1474 1521
e 1474 1522
e 1474 1523
e 1474 1524
e 1474 1525
e 1474 1526
e 1474 1527
e 1474 1528
e 1474 1529
e 1474 1530
e 1474 1531
e 1474 1532
e 1474 1533
e 1474 1534
e 1474 1535
e 1474 1536
e 1474 1537
e 1474 1538
e 1474 1539
e 1474 1540
e 1474 1541
e 1474 1542
e 1474 1543
e 1474 1544
e 1474 1545
e 1474 1546
e 1474 1547
e 1474 1548
e 1474 1549
e 1474 1550
e 1474 1551
e 1474 1552
e 1474 1553
e 1474 1554
e 1474 1555
e 1474 1556
e 1474 1557
e 1474 1558
e 1474 1559
e 1474 1560
e 1474 1561
e 1474 1562
e 1474 1563
e 1474 1564
e 1474 1565
e 1474 1566
e 1474 1567
e 1474 1568
e 1474 1569
e 1474 1570
e 1474 1571
e 1474 1572
e 1474 1573
e 1474 1574
